
Gurobi 7.0.2 (linux64, Matlab) logging started Sun Sep  2 08:56:09 2018


Gurobi 7.0.2 (linux64) logging started Sun Sep  2 08:56:09 2018

Optimize a model with 22016 rows, 7360 columns and 481408 nonzeros
Coefficient statistics:
  Matrix range     [1e+00, 2e+02]
  Objective range  [2e-01, 5e-01]
  Bounds range     [1e+00, 1e+00]
  RHS range        [1e+00, 2e+02]
Iteration    Objective       Primal Inf.    Dual Inf.      Time
       0    1.7235201e+00   0.000000e+00   0.000000e+00      0s

Solved in 0 iterations and 0.02 seconds
Optimal objective  1.723520132e+00
